Minimize
	value: tt

Subject to
tt + 500 s_1_1 > 0
tt - t_1_1 - 503.000000 s_1_1 + 3.000000 s_1_6 > -494.351480
tt + 500 s_2_1 > 0
tt - t_2_1 - 503.000000 s_2_1 + 3.000000 s_2_6 > -493.038438
tt + 500 s_1_2 > 0
tt - t_1_2 - 503.000000 s_1_2 + 3.000000 s_1_7 > -491.345363
tt + 500 s_2_2 > 0
tt - t_2_2 - 503.000000 s_2_2 + 3.000000 s_2_7 > -491.724114
tt + 500 s_1_3 > 0
tt - t_1_3 - 503.000000 s_1_3 + 3.000000 s_1_7 > -492.594573
tt + 500 s_2_3 > 0
tt - t_2_3 - 503.000000 s_2_3 + 3.000000 s_2_7 > -494.411656
tt + 500 s_1_4 > 0
tt - t_1_4 - 512.000000 s_1_4 + 12.000000 s_1_3 > -496.214280
tt + 500 s_2_4 > 0
tt - t_2_4 - 512.000000 s_2_4 + 12.000000 s_2_3 > -495.175874
tt + 500 s_1_5 > 0
tt - t_1_5 - 512.000000 s_1_5 + 12.000000 s_1_7 > -496.728813
tt + 500 s_2_5 > 0
tt - t_2_5 - 512.000000 s_2_5 + 12.000000 s_2_7 > -497.438514
tt + 500 s_1_6 > 0
tt - t_1_6 - 500.000000 s_1_6 > -491.575640
tt + 500 s_2_6 > 0
tt - t_2_6 - 500.000000 s_2_6 > -483.246201
tt + 500 s_1_7 > 0
tt - t_1_7 - 500.000000 s_1_7 > -497.277213
tt + 500 s_2_7 > 0
tt - t_2_7 - 500.000000 s_2_7 > -499.692528
tt + 500 s_1_8 > 0
tt - t_1_8 - 575.000000 s_1_8 + 75.000000 s_1_5 > -499.075280
tt + 500 s_2_8 > 0
tt - t_2_8 - 575.000000 s_2_8 + 75.000000 s_2_5 > -499.423583
s_1_1 + s_2_1  = 1
s_1_2 + s_2_2  = 1
s_1_3 + s_2_3  = 1
s_1_4 + s_2_4  = 1
s_1_5 + s_2_5  = 1
s_1_6 + s_2_6  = 1
s_1_7 + s_2_7  = 1
s_1_8 + s_2_8  = 1
t_1_1 - t_1_2 + 500.000000 u_1_1_2 - 3.000000 s_1_2 + 3.000000 s_1_7 > 8.654637
t_1_2 - t_1_1 - 500.000000 u_1_1_2 > -494.351480
t_2_1 - t_2_2 + 500.000000 u_2_1_2 - 3.000000 s_2_2 + 3.000000 s_2_7 > 8.275886
t_2_2 - t_2_1 - 500.000000 u_2_1_2 > -493.038438
t_1_1 - t_1_3 + 500.000000 u_1_1_3 - 3.000000 s_1_3 + 3.000000 s_1_7 > 7.405427
t_1_3 - t_1_1 - 500.000000 u_1_1_3 > -494.351480
t_2_1 - t_2_3 + 500.000000 u_2_1_3 - 3.000000 s_2_3 + 3.000000 s_2_7 > 5.588344
t_2_3 - t_2_1 - 500.000000 u_2_1_3 > -493.038438
t_1_1 - t_1_4 + 500.000000 u_1_1_4 - 6.000000 s_1_4 + 6.000000 s_1_3 > 3.785720
t_1_4 - t_1_1 - 500.000000 u_1_1_4 > -494.351480
t_2_1 - t_2_4 + 500.000000 u_2_1_4 - 6.000000 s_2_4 + 6.000000 s_2_3 > 4.824126
t_2_4 - t_2_1 - 500.000000 u_2_1_4 > -493.038438
t_1_1 - t_1_5 + 500.000000 u_1_1_5 - 6.000000 s_1_5 + 6.000000 s_1_7 > 3.271187
t_1_5 - t_1_1 - 500.000000 u_1_1_5 > -494.351480
t_2_1 - t_2_5 + 500.000000 u_2_1_5 - 6.000000 s_2_5 + 6.000000 s_2_7 > 2.561486
t_2_5 - t_2_1 - 500.000000 u_2_1_5 > -493.038438
t_1_1 - t_1_6 - 500.000000 s_1_6 > -488.575640
t_1_1 - t_2_6 - 500.000000 s_2_6 > -480.246201
t_2_1 - t_1_6 - 500.000000 s_1_6 > -488.575640
t_2_1 - t_2_6 - 500.000000 s_2_6 > -480.246201
t_1_1 - t_1_7 + 500.000000 u_1_1_7 > 2.722787
t_1_7 - t_1_1 - 500.000000 u_1_1_7 > -494.351480
t_2_1 - t_2_7 + 500.000000 u_2_1_7 > 0.307472
t_2_7 - t_2_1 - 500.000000 u_2_1_7 > -493.038438
t_1_8 - t_1_1 - 500.000000 s_1_1 > -491.351480
t_1_8 - t_2_1 - 500.000000 s_2_1 > -490.038438
t_2_8 - t_1_1 - 500.000000 s_1_1 > -491.351480
t_2_8 - t_2_1 - 500.000000 s_2_1 > -490.038438
t_1_2 - t_1_1 + 500.000000 u_1_2_1 - 3.000000 s_1_1 + 3.000000 s_1_6 > 5.648520
t_1_1 - t_1_2 - 500.000000 u_1_2_1 > -491.345363
t_2_2 - t_2_1 + 500.000000 u_2_2_1 - 3.000000 s_2_1 + 3.000000 s_2_6 > 6.961562
t_2_1 - t_2_2 - 500.000000 u_2_2_1 > -491.724114
t_1_2 - t_1_3 + 500.000000 u_1_2_3 - 3.000000 s_1_3 + 3.000000 s_1_7 > 7.405427
t_1_3 - t_1_2 - 500.000000 u_1_2_3 > -491.345363
t_2_2 - t_2_3 + 500.000000 u_2_2_3 - 3.000000 s_2_3 + 3.000000 s_2_7 > 5.588344
t_2_3 - t_2_2 - 500.000000 u_2_2_3 > -491.724114
t_1_2 - t_1_4 + 500.000000 u_1_2_4 - 6.000000 s_1_4 + 6.000000 s_1_3 > 3.785720
t_1_4 - t_1_2 - 500.000000 u_1_2_4 > -491.345363
t_2_2 - t_2_4 + 500.000000 u_2_2_4 - 6.000000 s_2_4 + 6.000000 s_2_3 > 4.824126
t_2_4 - t_2_2 - 500.000000 u_2_2_4 > -491.724114
t_1_2 - t_1_5 + 500.000000 u_1_2_5 - 6.000000 s_1_5 + 6.000000 s_1_7 > 3.271187
t_1_5 - t_1_2 - 500.000000 u_1_2_5 > -491.345363
t_2_2 - t_2_5 + 500.000000 u_2_2_5 - 6.000000 s_2_5 + 6.000000 s_2_7 > 2.561486
t_2_5 - t_2_2 - 500.000000 u_2_2_5 > -491.724114
t_1_2 - t_1_6 + 500.000000 u_1_2_6 > 8.424360
t_1_6 - t_1_2 - 500.000000 u_1_2_6 > -491.345363
t_2_2 - t_2_6 + 500.000000 u_2_2_6 > 16.753799
t_2_6 - t_2_2 - 500.000000 u_2_2_6 > -491.724114
t_1_2 - t_1_7 - 500.000000 s_1_7 > -494.277213
t_1_2 - t_2_7 - 500.000000 s_2_7 > -496.692528
t_2_2 - t_1_7 - 500.000000 s_1_7 > -494.277213
t_2_2 - t_2_7 - 500.000000 s_2_7 > -496.692528
t_1_8 - t_1_2 - 500.000000 s_1_2 > -488.345363
t_1_8 - t_2_2 - 500.000000 s_2_2 > -488.724114
t_2_8 - t_1_2 - 500.000000 s_1_2 > -488.345363
t_2_8 - t_2_2 - 500.000000 s_2_2 > -488.724114
t_1_3 - t_1_1 + 500.000000 u_1_3_1 - 3.000000 s_1_1 + 3.000000 s_1_6 > 5.648520
t_1_1 - t_1_3 - 500.000000 u_1_3_1 > -492.594573
t_2_3 - t_2_1 + 500.000000 u_2_3_1 - 3.000000 s_2_1 + 3.000000 s_2_6 > 6.961562
t_2_1 - t_2_3 - 500.000000 u_2_3_1 > -494.411656
t_1_3 - t_1_2 + 500.000000 u_1_3_2 - 3.000000 s_1_2 + 3.000000 s_1_7 > 8.654637
t_1_2 - t_1_3 - 500.000000 u_1_3_2 > -492.594573
t_2_3 - t_2_2 + 500.000000 u_2_3_2 - 3.000000 s_2_2 + 3.000000 s_2_7 > 8.275886
t_2_2 - t_2_3 - 500.000000 u_2_3_2 > -494.411656
t_1_4 - t_1_3 - 500.000000 s_1_3 > -489.594573
t_1_4 - t_2_3 - 500.000000 s_2_3 > -491.411656
t_2_4 - t_1_3 - 500.000000 s_1_3 > -489.594573
t_2_4 - t_2_3 - 500.000000 s_2_3 > -491.411656
t_1_3 - t_1_5 + 500.000000 u_1_3_5 - 6.000000 s_1_5 + 6.000000 s_1_7 > 3.271187
t_1_5 - t_1_3 - 500.000000 u_1_3_5 > -492.594573
t_2_3 - t_2_5 + 500.000000 u_2_3_5 - 6.000000 s_2_5 + 6.000000 s_2_7 > 2.561486
t_2_5 - t_2_3 - 500.000000 u_2_3_5 > -494.411656
t_1_3 - t_1_6 + 500.000000 u_1_3_6 > 8.424360
t_1_6 - t_1_3 - 500.000000 u_1_3_6 > -492.594573
t_2_3 - t_2_6 + 500.000000 u_2_3_6 > 16.753799
t_2_6 - t_2_3 - 500.000000 u_2_3_6 > -494.411656
t_1_3 - t_1_7 - 500.000000 s_1_7 > -494.277213
t_1_3 - t_2_7 - 500.000000 s_2_7 > -496.692528
t_2_3 - t_1_7 - 500.000000 s_1_7 > -494.277213
t_2_3 - t_2_7 - 500.000000 s_2_7 > -496.692528
t_1_8 - t_1_3 - 500.000000 s_1_3 > -489.594573
t_1_8 - t_2_3 - 500.000000 s_2_3 > -491.411656
t_2_8 - t_1_3 - 500.000000 s_1_3 > -489.594573
t_2_8 - t_2_3 - 500.000000 s_2_3 > -491.411656
t_1_4 - t_1_1 + 500.000000 u_1_4_1 - 3.000000 s_1_1 + 3.000000 s_1_6 > 5.648520
t_1_1 - t_1_4 - 500.000000 u_1_4_1 > -496.214280
t_2_4 - t_2_1 + 500.000000 u_2_4_1 - 3.000000 s_2_1 + 3.000000 s_2_6 > 6.961562
t_2_1 - t_2_4 - 500.000000 u_2_4_1 > -495.175874
t_1_4 - t_1_2 + 500.000000 u_1_4_2 - 3.000000 s_1_2 + 3.000000 s_1_7 > 8.654637
t_1_2 - t_1_4 - 500.000000 u_1_4_2 > -496.214280
t_2_4 - t_2_2 + 500.000000 u_2_4_2 - 3.000000 s_2_2 + 3.000000 s_2_7 > 8.275886
t_2_2 - t_2_4 - 500.000000 u_2_4_2 > -495.175874
t_1_4 - t_1_3 - 500.000000 s_1_3 > -489.594573
t_1_4 - t_2_3 - 500.000000 s_2_3 > -491.411656
t_2_4 - t_1_3 - 500.000000 s_1_3 > -489.594573
t_2_4 - t_2_3 - 500.000000 s_2_3 > -491.411656
t_1_4 - t_1_5 + 500.000000 u_1_4_5 - 6.000000 s_1_5 + 6.000000 s_1_7 > 3.271187
t_1_5 - t_1_4 - 500.000000 u_1_4_5 > -496.214280
t_2_4 - t_2_5 + 500.000000 u_2_4_5 - 6.000000 s_2_5 + 6.000000 s_2_7 > 2.561486
t_2_5 - t_2_4 - 500.000000 u_2_4_5 > -495.175874
t_1_4 - t_1_6 + 500.000000 u_1_4_6 > 8.424360
t_1_6 - t_1_4 - 500.000000 u_1_4_6 > -496.214280
t_2_4 - t_2_6 + 500.000000 u_2_4_6 > 16.753799
t_2_6 - t_2_4 - 500.000000 u_2_4_6 > -495.175874
t_1_4 - t_1_7 - 500.000000 s_1_7 > -494.277213
t_1_4 - t_2_7 - 500.000000 s_2_7 > -496.692528
t_2_4 - t_1_7 - 500.000000 s_1_7 > -494.277213
t_2_4 - t_2_7 - 500.000000 s_2_7 > -496.692528
t_1_8 - t_1_4 - 500.000000 s_1_4 > -490.214280
t_1_8 - t_2_4 - 500.000000 s_2_4 > -489.175874
t_2_8 - t_1_4 - 500.000000 s_1_4 > -490.214280
t_2_8 - t_2_4 - 500.000000 s_2_4 > -489.175874
t_1_5 - t_1_1 + 500.000000 u_1_5_1 - 3.000000 s_1_1 + 3.000000 s_1_6 > 5.648520
t_1_1 - t_1_5 - 500.000000 u_1_5_1 > -496.728813
t_2_5 - t_2_1 + 500.000000 u_2_5_1 - 3.000000 s_2_1 + 3.000000 s_2_6 > 6.961562
t_2_1 - t_2_5 - 500.000000 u_2_5_1 > -497.438514
t_1_5 - t_1_2 + 500.000000 u_1_5_2 - 3.000000 s_1_2 + 3.000000 s_1_7 > 8.654637
t_1_2 - t_1_5 - 500.000000 u_1_5_2 > -496.728813
t_2_5 - t_2_2 + 500.000000 u_2_5_2 - 3.000000 s_2_2 + 3.000000 s_2_7 > 8.275886
t_2_2 - t_2_5 - 500.000000 u_2_5_2 > -497.438514
t_1_5 - t_1_3 + 500.000000 u_1_5_3 - 3.000000 s_1_3 + 3.000000 s_1_7 > 7.405427
t_1_3 - t_1_5 - 500.000000 u_1_5_3 > -496.728813
t_2_5 - t_2_3 + 500.000000 u_2_5_3 - 3.000000 s_2_3 + 3.000000 s_2_7 > 5.588344
t_2_3 - t_2_5 - 500.000000 u_2_5_3 > -497.438514
t_1_5 - t_1_4 + 500.000000 u_1_5_4 - 6.000000 s_1_4 + 6.000000 s_1_3 > 3.785720
t_1_4 - t_1_5 - 500.000000 u_1_5_4 > -496.728813
t_2_5 - t_2_4 + 500.000000 u_2_5_4 - 6.000000 s_2_4 + 6.000000 s_2_3 > 4.824126
t_2_4 - t_2_5 - 500.000000 u_2_5_4 > -497.438514
t_1_5 - t_1_6 - 500.000000 s_1_6 > -488.575640
t_1_5 - t_2_6 - 500.000000 s_2_6 > -480.246201
t_2_5 - t_1_6 - 500.000000 s_1_6 > -488.575640
t_2_5 - t_2_6 - 500.000000 s_2_6 > -480.246201
t_1_5 - t_1_7 - 500.000000 s_1_7 > -494.277213
t_1_5 - t_2_7 - 500.000000 s_2_7 > -496.692528
t_2_5 - t_1_7 - 500.000000 s_1_7 > -494.277213
t_2_5 - t_2_7 - 500.000000 s_2_7 > -496.692528
t_1_8 - t_1_5 - 500.000000 s_1_5 > -490.728813
t_1_8 - t_2_5 - 500.000000 s_2_5 > -491.438514
t_2_8 - t_1_5 - 500.000000 s_1_5 > -490.728813
t_2_8 - t_2_5 - 500.000000 s_2_5 > -491.438514
t_1_1 - t_1_6 - 500.000000 s_1_6 > -488.575640
t_1_1 - t_2_6 - 500.000000 s_2_6 > -480.246201
t_2_1 - t_1_6 - 500.000000 s_1_6 > -488.575640
t_2_1 - t_2_6 - 500.000000 s_2_6 > -480.246201
t_1_6 - t_1_2 + 500.000000 u_1_6_2 - 3.000000 s_1_2 + 3.000000 s_1_7 > 8.654637
t_1_2 - t_1_6 - 500.000000 u_1_6_2 > -491.575640
t_2_6 - t_2_2 + 500.000000 u_2_6_2 - 3.000000 s_2_2 + 3.000000 s_2_7 > 8.275886
t_2_2 - t_2_6 - 500.000000 u_2_6_2 > -483.246201
t_1_6 - t_1_3 + 500.000000 u_1_6_3 - 3.000000 s_1_3 + 3.000000 s_1_7 > 7.405427
t_1_3 - t_1_6 - 500.000000 u_1_6_3 > -491.575640
t_2_6 - t_2_3 + 500.000000 u_2_6_3 - 3.000000 s_2_3 + 3.000000 s_2_7 > 5.588344
t_2_3 - t_2_6 - 500.000000 u_2_6_3 > -483.246201
t_1_6 - t_1_4 + 500.000000 u_1_6_4 - 6.000000 s_1_4 + 6.000000 s_1_3 > 3.785720
t_1_4 - t_1_6 - 500.000000 u_1_6_4 > -491.575640
t_2_6 - t_2_4 + 500.000000 u_2_6_4 - 6.000000 s_2_4 + 6.000000 s_2_3 > 4.824126
t_2_4 - t_2_6 - 500.000000 u_2_6_4 > -483.246201
t_1_5 - t_1_6 - 500.000000 s_1_6 > -488.575640
t_1_5 - t_2_6 - 500.000000 s_2_6 > -480.246201
t_2_5 - t_1_6 - 500.000000 s_1_6 > -488.575640
t_2_5 - t_2_6 - 500.000000 s_2_6 > -480.246201
t_1_6 - t_1_7 + 500.000000 u_1_6_7 > 2.722787
t_1_7 - t_1_6 - 500.000000 u_1_6_7 > -491.575640
t_2_6 - t_2_7 + 500.000000 u_2_6_7 > 0.307472
t_2_7 - t_2_6 - 500.000000 u_2_6_7 > -483.246201
t_1_7 - t_1_1 + 500.000000 u_1_7_1 - 3.000000 s_1_1 + 3.000000 s_1_6 > 5.648520
t_1_1 - t_1_7 - 500.000000 u_1_7_1 > -497.277213
t_2_7 - t_2_1 + 500.000000 u_2_7_1 - 3.000000 s_2_1 + 3.000000 s_2_6 > 6.961562
t_2_1 - t_2_7 - 500.000000 u_2_7_1 > -499.692528
t_1_2 - t_1_7 - 500.000000 s_1_7 > -494.277213
t_1_2 - t_2_7 - 500.000000 s_2_7 > -496.692528
t_2_2 - t_1_7 - 500.000000 s_1_7 > -494.277213
t_2_2 - t_2_7 - 500.000000 s_2_7 > -496.692528
t_1_3 - t_1_7 - 500.000000 s_1_7 > -494.277213
t_1_3 - t_2_7 - 500.000000 s_2_7 > -496.692528
t_2_3 - t_1_7 - 500.000000 s_1_7 > -494.277213
t_2_3 - t_2_7 - 500.000000 s_2_7 > -496.692528
t_1_4 - t_1_7 - 500.000000 s_1_7 > -494.277213
t_1_4 - t_2_7 - 500.000000 s_2_7 > -496.692528
t_2_4 - t_1_7 - 500.000000 s_1_7 > -494.277213
t_2_4 - t_2_7 - 500.000000 s_2_7 > -496.692528
t_1_5 - t_1_7 - 500.000000 s_1_7 > -494.277213
t_1_5 - t_2_7 - 500.000000 s_2_7 > -496.692528
t_2_5 - t_1_7 - 500.000000 s_1_7 > -494.277213
t_2_5 - t_2_7 - 500.000000 s_2_7 > -496.692528
t_1_7 - t_1_6 + 500.000000 u_1_7_6 > 8.424360
t_1_6 - t_1_7 - 500.000000 u_1_7_6 > -497.277213
t_2_7 - t_2_6 + 500.000000 u_2_7_6 > 16.753799
t_2_6 - t_2_7 - 500.000000 u_2_7_6 > -499.692528
t_1_8 - t_1_1 - 500.000000 s_1_1 > -491.351480
t_1_8 - t_2_1 - 500.000000 s_2_1 > -490.038438
t_2_8 - t_1_1 - 500.000000 s_1_1 > -491.351480
t_2_8 - t_2_1 - 500.000000 s_2_1 > -490.038438
t_1_8 - t_1_2 - 500.000000 s_1_2 > -488.345363
t_1_8 - t_2_2 - 500.000000 s_2_2 > -488.724114
t_2_8 - t_1_2 - 500.000000 s_1_2 > -488.345363
t_2_8 - t_2_2 - 500.000000 s_2_2 > -488.724114
t_1_8 - t_1_3 - 500.000000 s_1_3 > -489.594573
t_1_8 - t_2_3 - 500.000000 s_2_3 > -491.411656
t_2_8 - t_1_3 - 500.000000 s_1_3 > -489.594573
t_2_8 - t_2_3 - 500.000000 s_2_3 > -491.411656
t_1_8 - t_1_4 - 500.000000 s_1_4 > -490.214280
t_1_8 - t_2_4 - 500.000000 s_2_4 > -489.175874
t_2_8 - t_1_4 - 500.000000 s_1_4 > -490.214280
t_2_8 - t_2_4 - 500.000000 s_2_4 > -489.175874
t_1_8 - t_1_5 - 500.000000 s_1_5 > -490.728813
t_1_8 - t_2_5 - 500.000000 s_2_5 > -491.438514
t_2_8 - t_1_5 - 500.000000 s_1_5 > -490.728813
t_2_8 - t_2_5 - 500.000000 s_2_5 > -491.438514
Binary
s_1_1
s_2_1
s_1_2
s_2_2
s_1_3
s_2_3
s_1_4
s_2_4
s_1_5
s_2_5
s_1_6
s_2_6
s_1_7
s_2_7
s_1_8
s_2_8
u_1_1_2
u_2_1_2
u_1_1_3
u_2_1_3
u_1_1_4
u_2_1_4
u_1_1_5
u_2_1_5
u_1_1_7
u_2_1_7
u_1_2_1
u_2_2_1
u_1_2_3
u_2_2_3
u_1_2_4
u_2_2_4
u_1_2_5
u_2_2_5
u_1_2_6
u_2_2_6
u_1_3_1
u_2_3_1
u_1_3_2
u_2_3_2
u_1_3_5
u_2_3_5
u_1_3_6
u_2_3_6
u_1_4_1
u_2_4_1
u_1_4_2
u_2_4_2
u_1_4_5
u_2_4_5
u_1_4_6
u_2_4_6
u_1_5_1
u_2_5_1
u_1_5_2
u_2_5_2
u_1_5_3
u_2_5_3
u_1_5_4
u_2_5_4
u_1_6_2
u_2_6_2
u_1_6_3
u_2_6_3
u_1_6_4
u_2_6_4
u_1_6_7
u_2_6_7
u_1_7_1
u_2_7_1
u_1_7_6
u_2_7_6

End
